917981
197,113,85,208,112,41,159,121,151,176,225,50,72,125,69,217,205,118,192,83,28,142,124,110,16,222,155,210,144,4,63,43,175,46,224,47,226,213,163,153,64,199,9,200,190,198,30,42,38,206,146,126,15,188,59,2,137,136,14,219,12,133,18,45,196,173,75,94,78,166,187,135,180,172,130,147,60,181,123,84,122,24,79,131,76,140,23,189,98,201,104,91,174,53,17,55,52,99,215,65,218,105,127,40,221,97,184,116,19,25,21,49,107,93,34,150,27,191,178,88,209,62,31,48,162,207,56,57,212,92,203,229,44,211,103,216,3,20,108,89,185,170,149,169,141,227,87,145,11,102,186,223,152,128,32,37,202,5,67,8,204,54,111,154,132,228,35,86,61,101,80,39,26,168,129,77,214,74,33,36,195,106,160,115,183,100,165,95,90,143,182,6,0,71,161,117,70,139,82,134,156,73,66,177,158,22,68,194,167,171,1,114,81,179,120,157,148,51,220,58,138,10,193,96,29,7,119,164,109,13,197